p cnf 51 175
-3 -1 0
-3 2 0
1 -2 3 0
-5 -3 0
-5 -4 0
3 4 5 0
6 -4 0
6 1 0
4 -1 -6 0
2 -7 0
-2 -7 0
8 6 0
8 -7 0
-6 7 -8 0
-11 9 0
-11 -10 0
-9 10 11 0
8 -11 -12 0
-8 11 -12 0
8 11 12 0
-8 -11 12 0
-14 -13 0
-14 -7 0
13 7 14 0
-12 14 -15 0
12 -14 -15 0
-12 -14 15 0
12 14 15 0
-16 5 0
-16 15 0
-5 -15 16 0
-9 -10 -17 0
9 10 -17 0
-9 10 17 0
9 -10 17 0
18 17 0
18 2 0
-17 -2 -18 0
-19 7 0
-19 9 0
-7 -9 19 0
19 20 -21 0
-19 -20 -21 0
19 -20 21 0
-19 20 21 0
22 18 0
22 -21 0
-18 21 -22 0
-7 22 -23 0
7 -22 -23 0
-7 -22 23 0
7 22 23 0
25 7 0
25 -24 0
-7 24 -25 0
26 -21 0
26 3 0
21 -3 -26 0
20 26 -27 0
-20 -26 -27 0
20 -26 27 0
-20 26 27 0
25 27 -28 0
-25 -27 -28 0
25 -27 28 0
-25 27 28 0
29 23 0
29 28 0
-23 -28 -29 0
-30 18 0
-30 10 0
-18 -10 30 0
-31 -29 0
-31 -30 0
29 30 31 0
16 31 -32 0
-16 -31 -32 0
16 -31 32 0
-16 31 32 0
35 33 0
35 -34 0
-33 34 -35 0
-32 35 -36 0
32 -35 -36 0
-32 -35 36 0
32 35 36 0
37 -1 0
37 9 0
1 -9 -37 0
-38 36 0
-38 -37 0
-36 37 38 0
39 -4 0
39 -13 0
4 13 -39 0
40 4 0
40 -10 0
-4 10 -40 0
-41 40 0
-41 -7 0
-40 7 41 0
42 -41 0
42 -41 0
41 -42 0
-43 2 0
-43 34 0
-2 -34 43 0
-44 -42 0
-44 -43 0
42 43 44 0
45 39 0
45 -44 0
-39 44 -45 0
-46 -38 0
-46 -45 0
38 45 46 0
13 10 -47 0
-13 -10 -47 0
13 -10 47 0
-13 10 47 0
-48 17 0
-48 47 0
-17 -47 48 0
6 17 -49 0
-6 -17 -49 0
6 -17 49 0
-6 17 49 0
-50 -48 0
-50 -49 0
48 49 50 0
46 50 -51 0
-46 -50 -51 0
46 -50 51 0
-46 50 51 0
20 -30 -37 -51 3 -44 0
-46 44 -49 0
38 -35 20 0
-24 -31 46 26 0
37 33 35 -47 0
-27 -43 -37 41 0
-10 18 -30 0
2 -38 -32 47 10 44 0
-39 -12 -19 -3 -50 -7 0
4 50 -1 -14 0
47 -33 18 1 0
51 39 6 4 0
9 -10 7 -8 -5 0
44 -31 -12 34 -7 -29 0
-38 35 5 -31 -45 0
-46 51 0
4 8 39 28 19 12 0
-39 37 -10 0
-4 42 0
5 -15 46 0
-3 -15 0
-25 3 -27 41 0
5 -10 -34 -18 0
29 42 -23 0
11 -43 29 0
-12 29 39 0
-20 41 -40 18 -15 0
-15 -1 -51 44 0
36 1 -35 -24 21 0
-14 -35 34 21 -49 0
-25 -32 -31 -43 -7 0
-6 -7 -1 0
27 -49 0
29 41 22 -45 -34 25 0
-13 12 -10 0
35 12 -31 0
50 36 7 46 0
12 1 0
17 19 -50 0
40 27 21 0
51 0
